data/solutions/recovery/wellformed/moderate/flexible/wellformed_moderate_instance11/4.sol
Elapsed time: 7.99
Upper bound: 11160.0
Planning weighted value: 74312.0
C[0]=11160.0
C[1]=11156.0
C[2]=11156.0
y[0]=1
y[1]=0
y[2]=2
y[3]=1
y[4]=1
y[5]=2
y[6]=1
y[7]=0
y[8]=2
y[9]=1
y[10]=1
y[11]=1
y[12]=2
y[13]=1
y[14]=0
y[15]=1
y[16]=2
y[17]=1
y[18]=0
y[19]=0
y[20]=0
y[21]=0
y[22]=0
y[23]=2
y[24]=1
y[25]=0
y[26]=0
y[27]=2
y[28]=1
y[29]=0
y[30]=0
y[31]=0
y[32]=2
